B  N - POSCAR_1-2 - POSCAR_1-2-copy
   1.00000000000000
    20.0186405181884766     0.0000000000000000     0.0000000000000000
   -10.0093202590942383    17.3366527557373047     0.0000000000000000
     0.0000000000000000     0.0000000000000000    13.1744375228881836
   B N C
   254 254 2
Direct
  0.0000082526657934  0.0000086512172857  0.9999700188636780
  0.1250077188014984  0.0000085309657152  0.9999951720237732
  0.2500073611736298  0.0000084449075075  0.0000236503547058
  0.3750070631504059  0.0000085016972662  0.0000278409115708
  0.5000066161155701  0.0000085761948867  1.0000010728836060
  0.6250065565109253  0.0000080423496911  0.9999696016311646
  0.7500067949295044  0.0000074019699241  0.9999563694000244
  0.8750078082084656  0.0000080875015556  0.9999584555625916
  0.0000115297734737  0.1250115633010864  0.9999756813049316
  0.1250118613243103  0.1250115633010864  0.0000218868281081
  0.2500096559524536  0.1250113397836685  0.0000827534458949
  0.3750078976154327  0.1250112503767014  0.0001186646695714
  0.5000059008598328  0.1250113844871521  0.0000962865306064
  0.6250063180923462  0.1250115036964417  0.0000313820055453
  0.7500076293945312  0.1250108331441879  0.9999754428863525
  0.8750094771385193  0.1250108629465103  0.9999578595161438
  0.0000144839286804  0.2500166594982147  0.9999710321426392
  0.1250177025794983  0.2500176131725311  0.0000186740126082
  0.2500174045562744  0.2500176131725311  0.0000981511475402
  0.3750121593475342  0.2500181496143341  0.0001707654882921
  0.5000061988830566  0.2500170469284058  0.0001818485034164
  0.6250061988830566  0.2500175833702087  0.0001242652069777
  0.7500084042549133  0.2500166594982147  0.0000319927676173
  0.8750112056732178  0.2500161826610565  0.9999726414680481
  0.0000161975622177  0.3750219643115997  0.9999703168869019
  0.1250210702419281  0.3750233650207520  0.9999942183494568
  0.2500250339508057  0.3750250935554504  0.0000610344795859
  0.3750199079513550  0.3750241398811340  0.0001424037618563
  0.5000103712081909  0.3750236034393311  0.0001864920341177
  0.6250063180923462  0.3750250041484833  0.0001736609847285
  0.7500085830688477  0.3750233352184296  0.0000906310669961
  0.8750120401382446  0.3750219643115997  0.0000050259177442
  0.0000148862600327  0.5000235438346863  0.9999777674674988
  0.1250199377536774  0.5000241398811340  0.9999743700027466
  0.2500247657299042  0.5000253915786743  0.0000094394690677
  0.3750271797180176  0.5000264048576355  0.0000683524558553
  0.5000163912773132  0.5000265240669250  0.0001242592406925
  0.6250053644180298  0.5000262856483459  0.0001408707321389
  0.7500069737434387  0.5000254511833191  0.0000995234222501
  0.8750104904174805  0.5000241398811340  0.0000275749589491
  0.0000112354755402  0.6250199079513550  0.9999777674674988
  0.1250149458646774  0.6250199079513550  0.9999638199806213
  0.2500182390213013  0.6250200271606445  0.9999750852584839
  0.3750188052654266  0.6250184178352356  0.0000023831050839
  0.5000122785568237  0.6250122785568237  0.0000384500199289
  0.6250061988830566  0.6250122785568237  0.0000639517311356
  0.7500058412551880  0.6250184178352356  0.0000562080786040
  0.8750080466270447  0.6250200271606445  0.0000170437706402
  0.0000081062316895  0.7500138282775879  0.9999666810035706
  0.1250101178884506  0.7500140070915222  0.9999575614929199
  0.2500120103359222  0.7500138282775879  0.9999600648880005
  0.3750121593475342  0.7500124573707581  0.9999676346778870
  0.5000097155570984  0.7500088214874268  0.9999810457229614
  0.6250059604644775  0.7500057220458984  0.9999976158142090
  0.7500053644180298  0.7500088810920715  0.0000025097726848
  0.8750065565109253  0.7500124573707581  0.9999874830245972
  0.0000069141387939  0.8750091195106506  0.9999618530273438
  0.1250074803829193  0.8750095367431641  0.9999658465385437
  0.2500083148479462  0.8750095367431641  0.9999728798866272
  0.3750085234642029  0.8750091195106506  0.9999705553054810
  0.5000078678131104  0.8750081062316895  0.9999632835388184
  0.6250065565109253  0.8750060796737671  0.9999636411666870
  0.7500058412551880  0.8750060796737671  0.9999682307243347
  0.8750064969062805  0.8750081658363342  0.9999662637710571
  0.9999412298202515  0.9998777508735657  0.4999670684337616
  0.1233516931533813  0.9974307417869568  0.4999915063381195
  0.2482967972755432  0.9965971112251282  0.5000197887420654
  0.3740742504596710  0.9974293112754822  0.5000128746032715
  0.4999314844608307  0.9998776316642761  0.4999856352806091
  0.6258620619773865  0.0025112580042332  0.4999708235263824
  0.7516708374023438  0.0033481351565570  0.4999709725379944
  0.8766428828239441  0.0025100435595959  0.4999642968177795
  0.0019140653312206  0.1266907900571823  0.4999782741069794
  0.1251101344823837  0.1239669397473335  0.5000246167182922
  0.2477951943874359  0.1209381222724915  0.5001013278961182
  0.3731383383274078  0.1209385767579079  0.5001249909400940
  0.4988510906696320  0.1239665970206261  0.5000711679458618
  0.6247723102569580  0.1266926079988480  0.5000162720680237
  0.7508820891380310  0.1277136802673340  0.4999802708625793
  0.8768253922462463  0.1277124136686325  0.4999671280384064
  0.0028286203742027  0.2521468400955200  0.4999824762344360
  0.1286037415266037  0.2513281106948853  0.5000312924385071
  0.2508615255355835  0.2477207183837891  0.5001202821731567
  0.3714301586151123  0.2428676187992096  0.5002172589302063
  0.4968525767326355  0.2477205097675323  0.5001730322837830
  0.6227201223373413  0.2513300180435181  0.5000904798507690
  0.7493147850036621  0.2521486282348633  0.5000265240669250
  0.8761628270149231  0.2523302733898163  0.4999873936176300
  0.0023709684610367  0.3764514625072479  0.4999904334545135
  0.1309049427509308  0.3764093518257141  0.5000093579292297
  0.2600424885749817  0.3758977055549622  0.5000746846199036
  0.4826468825340271  0.3688567578792572  0.5001826882362366
  0.6158505678176880  0.3758974075317383  0.5001258254051208
  0.7454999089241028  0.3764102160930634  0.5000634193420410
  0.8740763068199158  0.3764519691467285  0.5000149607658386
  0.0000129342079163  0.5000314712524414  0.5000020861625671
  0.1290600299835205  0.5000435709953308  0.4999990165233612
  0.2593538165092468  0.5000338554382324  0.5000243782997131
  0.3932068943977356  0.4993008375167847  0.5000670552253723
  0.6060854196548462  0.4992980360984802  0.5000913739204407
  0.7406731843948364  0.5000327229499817  0.5000648498535156
  0.8709779977798462  0.5000435709953308  0.5000303387641907
  0.9980264902114868  0.6235653162002563  0.4999992847442627
  0.1255324035882950  0.6235655546188354  0.4999921321868896
  0.2529816627502441  0.6236171126365662  0.4999985098838806
  0.3801107704639435  0.6239826083183289  0.5000155568122864
  0.5073822736740112  0.6295583844184875  0.5000242590904236
  0.6221684217453003  0.6295569539070129  0.5000317692756653
  0.7438654899597168  0.6239816546440125  0.5000351667404175
  0.8706283569335938  0.6236165761947632  0.5000191330909729
  0.9975869655609131  0.7478265166282654  0.4999799132347107
  0.1238144934177399  0.7476341128349304  0.4999731779098511
  0.2502336204051971  0.7478255629539490  0.4999724626541138
  0.3764640986919403  0.7486734390258789  0.4999774992465973
  0.5025146007537842  0.7517566084861755  0.4999873936176300
  0.6286126971244812  0.7572320699691772  0.4999854266643524
  0.7492356300354004  0.7517561316490173  0.4999979734420776
  0.8722039461135864  0.7486737370491028  0.4999937117099762
  0.9982960224151611  0.8732464909553528  0.4999632835388184
  0.1232350468635559  0.8722329735755920  0.4999646842479706
  0.2489959150552750  0.8722313642501831  0.4999678134918213
  0.3749457001686096  0.8732452392578125  0.4999644160270691
  0.5008879899978638  0.8757249116897583  0.4999640882015228
  0.6268360018730164  0.8790485858917236  0.4999690055847168
  0.7522052526473999  0.8790475130081177  0.4999736249446869
  0.8748313188552856  0.8757247924804688  0.4999704360961914
  0.0833126753568649  0.0416376926004887  0.2499566376209259
  0.2082980275154114  0.0416063703596592  0.2500209510326385
  0.3333072662353516  0.0416064113378525  0.2500431835651398
  0.4583235383033752  0.0416359789669514  0.2499957233667374
  0.5833403468132019  0.0416788756847382  0.2499335110187531
  0.7083546519279480  0.0417110845446587  0.2498847246170044
  0.8333553671836853  0.0417110472917557  0.2498794794082642
  0.9583377242088318  0.0416782870888710  0.2499107271432877
  0.0833498612046242  0.1666678488254547  0.2500382661819458
  0.2083170711994171  0.1666250079870224  0.2501001060009003
  0.3332962393760681  0.1665940433740616  0.2501418888568878
  0.4583064317703247  0.1666253954172134  0.2501591742038727
  0.5833193063735962  0.1666686534881592  0.2501034736633301
  0.7083405256271362  0.1667055338621140  0.2500208616256714
  0.8333593606948853  0.1667188853025436  0.2499726861715317
  0.9583648443222046  0.1667044609785080  0.2499842196702957
  0.0833874940872192  0.2917015552520752  0.2501431405544281
  0.2083752751350403  0.2916597425937653  0.2502047419548035
  0.3333301544189453  0.2916218042373657  0.2501272261142731
  0.4582898616790771  0.2916223108768463  0.2501615285873413
  0.5832834243774414  0.2916616201400757  0.2502769529819489
  0.7083141803741455  0.2917025685310364  0.2502143681049347
  0.8333472609519958  0.2917207479476929  0.2501057982444763
  0.9583745002746582  0.2917201519012451  0.2500762641429901
  0.0833936557173729  0.4167084395885468  0.2501973807811737
  0.2084158211946487  0.4166884422302246  0.2503515779972076
  0.3334127068519592  0.4166629016399384  0.2502804994583130
  0.4583506584167480  0.4167026281356812  0.2498709261417389
  0.5832504034042358  0.4166641533374786  0.2503166198730469
  0.7082727551460266  0.4166896939277649  0.2503993213176727
  0.8333149552345276  0.4167089462280273  0.2502465248107910
  0.9583562612533569  0.4167125821113586  0.2501434981822968
  0.0833621770143509  0.5416826009750366  0.2501396834850311
  0.2084004431962967  0.5416765809059143  0.2502933442592621
  0.3334217667579651  0.5416574478149414  0.2504826784133911
  0.4584279060363770  0.5416412949562073  0.2504009902477264
  0.5832136869430542  0.5416401624679565  0.2504094541072845
  0.7082358598709106  0.5416581034660339  0.2505068182945251
  0.8332779407501221  0.5416780114173889  0.2503269314765930
  0.9583206176757812  0.5416827201843262  0.2501600384712219
  0.0833243131637573  0.6666489839553833  0.2500539422035217
  0.2083566486835480  0.6666502952575684  0.2500936985015869
  0.3333807289600372  0.6666485667228699  0.2502103149890900
  0.4583874642848969  0.6666542887687683  0.2502439618110657
  0.5833383202552795  0.6666780114173889  0.2501789331436157
  0.7082657814025879  0.6666547656059265  0.2502572238445282
  0.8332670927047729  0.6666491627693176  0.2502321600914001
  0.9582934379577637  0.6666507720947266  0.2501122653484344
  0.0833033025264740  0.7916270494461060  0.2499842941761017
  0.2083228826522827  0.7916268706321716  0.2499834597110748
  0.3333446085453033  0.7916375994682312  0.2499999403953552
  0.4583598375320435  0.7916614413261414  0.2500120401382446
  0.5833603143692017  0.7916931509971619  0.2499379664659500
  0.7083315253257751  0.7916933298110962  0.2499449998140335
  0.8333005905151367  0.7916615605354309  0.2500248253345490
  0.9582918882369995  0.7916374802589417  0.2500068843364716
  0.0832983851432800  0.9166213870048523  0.2499438077211380
  0.2083055078983307  0.9166121482849121  0.2499684393405914
  0.3333215713500977  0.9166220426559448  0.2499561160802841
  0.4583396613597870  0.9166513085365295  0.2499236613512039
  0.5833535194396973  0.9166902303695679  0.2498710155487061
  0.7083551883697510  0.9167116880416870  0.2498336881399155
  0.8333352804183960  0.9166900515556335  0.2498749792575836
  0.9583109021186829  0.9166517257690430  0.2499172836542130
  0.0833141952753067  0.0416388474404812  0.7500401139259338
  0.2083000838756561  0.0416079796850681  0.7500485181808472
  0.3333077430725098  0.0416079722344875  0.7500689625740051
  0.4583250284194946  0.0416404157876968  0.7500792741775513
  0.5833412408828735  0.0416802018880844  0.7500594258308411
  0.7083548307418823  0.0417096763849258  0.7500455975532532
  0.8333556056022644  0.0417104028165340  0.7500408887863159
  0.9583402276039124  0.0416832119226456  0.7500362396240234
  0.0833529159426689  0.1666713505983353  0.7499831318855286
  0.2083210051059723  0.1666283160448074  0.7500392198562622
  0.3332997858524323  0.1665976643562317  0.7501107454299927
  0.4583106040954590  0.1666298210620880  0.7501093745231628
  0.5833202600479126  0.1666712611913681  0.7500590682029724
  0.7083405256271362  0.1667047142982483  0.7499982118606567
  0.8333605527877808  0.1667201817035675  0.7499600648880005
  0.9583662152290344  0.1667077392339706  0.7499616742134094
  0.0833890140056610  0.2917048335075378  0.7498535513877869
  0.2083784639835358  0.2916646301746368  0.7499113082885742
  0.3333335220813751  0.2916258573532104  0.7501405477523804
  0.4582931995391846  0.2916266918182373  0.7501909136772156
  0.5832896828651428  0.2916674911975861  0.7500107288360596
  0.7083148956298828  0.2917022705078125  0.7499324083328247
  0.8333481550216675  0.2917227149009705  0.7498969435691833
  0.9583759307861328  0.2917249202728271  0.7498709559440613
  0.0833954662084579  0.4167116880416870  0.7497672438621521
  0.2084182351827621  0.4166912734508514  0.7496816515922546
  0.3334168791770935  0.4166675806045532  0.7498586773872375
  0.4583541154861450  0.4167078435420990  0.7503775954246521
  0.5832518935203552  0.4166695773601532  0.7499281167984009
  0.7082720994949341  0.4166917204856873  0.7497655153274536
  0.8333150744438171  0.4167109727859497  0.7498227953910828
  0.9583576321601868  0.4167162179946899  0.7498300075531006
  0.0833631306886673  0.5416860580444336  0.7498102784156799
  0.2084009647369385  0.5416797995567322  0.7496877908706665
  0.3334235548973083  0.5416600704193115  0.7495473027229309
  0.4584299325942993  0.5416465997695923  0.7496809363365173
  0.5832160711288452  0.5416479706764221  0.7497049570083618
  0.7082340717315674  0.5416637659072876  0.7496009469032288
  0.8332760334014893  0.5416793823242188  0.7497383952140808
  0.9583213329315186  0.5416859388351440  0.7498316168785095
  0.0833269655704498  0.6666550636291504  0.7498887181282043
  0.2083577960729599  0.6666520237922668  0.7498496174812317
  0.3333837985992432  0.6666511893272400  0.7497605085372925
  0.4583898186683655  0.6666574478149414  0.7497567534446716
  0.5833401083946228  0.6666810512542725  0.7498490810394287
  0.7082688212394714  0.6666601896286011  0.7497805356979370
  0.8332681655883789  0.6666511893272400  0.7497918009757996
  0.9582937955856323  0.6666518449783325  0.7498679757118225
  0.0833038687705994  0.7916300892829895  0.7499468922615051
  0.2083263993263245  0.7916301488876343  0.7499483823776245
  0.3333487510681152  0.7916384935379028  0.7499399781227112
  0.4583638906478882  0.7916633486747742  0.7499353289604187
  0.5833626985549927  0.7916965484619141  0.7500274181365967
  0.7083329558372498  0.7916961312294006  0.7500346899032593
  0.8332999944686890  0.7916639447212219  0.7499501705169678
  0.9582908749580383  0.7916393280029297  0.7499444484710693
  0.0832989513874054  0.9166229963302612  0.7500073313713074
  0.2083072066307068  0.9166141748428345  0.7500000596046448
  0.3333245217800140  0.9166235327720642  0.7500218749046326
  0.4583434760570526  0.9166532158851624  0.7500281333923340
  0.5833565592765808  0.9166917800903320  0.7500593066215515
  0.7083562612533569  0.9167123436927795  0.7500999569892883
  0.8333353400230408  0.9166921973228455  0.7500630617141724
  0.9583091735839844  0.9166529774665833  0.7500219345092773
  0.9999877214431763  0.9999971389770508  0.2499169111251831
  0.1249713003635406  0.9999620318412781  0.2499681115150452
  0.2499751746654510  0.9999516010284424  0.2500272989273071
  0.3749899864196777  0.9999626874923706  0.2499969005584717
  0.5000094175338745  0.9999980330467224  0.2499395906925201
  0.6250258088111877  0.0000425214093411  0.2498858571052551
  0.7500317692756653  0.0000645826512482  0.2498500049114227
  0.8750151395797729  0.0000416006405430  0.2498813420534134
  0.0000199750065804  0.1250272393226624  0.2499845474958420
  0.1249876916408539  0.1249760985374451  0.2500354647636414
  0.2499670535326004  0.1249393820762634  0.2501366436481476
  0.3749712109565735  0.1249395608901978  0.2501699626445770
  0.4999885559082031  0.1249766796827316  0.2501001358032227
  0.6250081658363342  0.1250290125608444  0.2500293850898743
  0.7500268220901489  0.1250622272491455  0.2499686330556870
  0.8750347495079041  0.1250617802143097  0.2499554455280304
  0.0000478327274323  0.2500497102737427  0.2500987052917480
  0.1250368058681488  0.2500106692314148  0.2501852512359619
  0.2499907910823822  0.2499481290578842  0.2501929104328156
  0.3749555349349976  0.2499132156372070  0.2502455711364746
  0.4999558925628662  0.2499486505985260  0.2502584755420685
  0.6249732971191406  0.2500116825103760  0.2502657771110535
  0.7500024437904358  0.2500507831573486  0.2501527667045593
  0.8750319480895996  0.2500632405281067  0.2500770688056946
  0.0000434517860413  0.3750473856925964  0.2501570582389832
  0.1250667870044708  0.3750291764736176  0.2502809166908264
  0.2500600218772888  0.3749882280826569  0.2503918111324310
  0.3749990761280060  0.3749195039272308  0.2500158250331879
  0.4999189376831055  0.3749199807643890  0.2500450909137726
  0.6249279975891113  0.3749895393848419  0.2504455745220184
  0.7499623298645020  0.3750300705432892  0.2503429353237152
  0.8750041723251343  0.3750478625297546  0.2501894533634186
  0.0000125169754028  0.5000249743461609  0.2501281201839447
  0.1250507533550262  0.5000201463699341  0.2502014636993408
  0.2500717043876648  0.4999992251396179  0.2504114806652069
  0.3750570416450500  0.4999589622020721  0.2504920363426208
  0.4999590516090393  0.4999192357063293  0.2496466189622879
  0.6249014735221863  0.4999595582485199  0.2505125403404236
  0.7499283552169800  0.5000008344650269  0.2504442036151886
  0.8749698400497437  0.5000206828117371  0.2502414584159851
  0.9999831318855286  0.6249984502792358  0.2500716745853424
  0.1250147223472595  0.6249982118606567  0.2500572502613068
  0.2500391006469727  0.6249938011169434  0.2501740157604218
  0.3750432133674622  0.6249850392341614  0.2503124773502350
  0.5000307559967041  0.6250073909759521  0.2502437233924866
  0.6249752640724182  0.6250074505805969  0.2502504587173462
  0.7499409317970276  0.6249860525131226  0.2503314018249512
  0.8749548196792603  0.6249951720237732  0.2502017021179199
  0.9999701976776123  0.7499815225601196  0.2500013709068298
  0.1249884366989136  0.7499778866767883  0.2499819695949554
  0.2500101327896118  0.7499811053276062  0.2499935328960419
  0.3750270903110504  0.7499903440475464  0.2500493824481964
  0.5000343322753906  0.7500162124633789  0.2500631511211395
  0.6250239014625549  0.7500488162040710  0.2499510496854782
  0.7499810457229614  0.7500169873237610  0.2500763833522797
  0.8749624490737915  0.7499910593032837  0.2500650882720947
  0.9999712705612183  0.8749800324440002  0.2499336153268814
  0.1249750554561615  0.8749656081199646  0.2499515563249588
  0.2499889433383942  0.8749655485153198  0.2499572336673737
  0.3750073611736298  0.8749803900718689  0.2499385774135590
  0.5000235438346863  0.8750113844871521  0.2499201893806458
  0.6250324249267578  0.8750513195991516  0.2498458325862885
  0.7500178217887878  0.8750515580177307  0.2498517632484436
  0.8749870657920837  0.8750118017196655  0.2499263286590576
  0.9999895691871643  0.0000006749933164  0.7500325441360474
  0.1249726414680481  0.9999644756317139  0.7500264048576355
  0.2499762177467346  0.9999538064002991  0.7500166893005371
  0.3749914169311523  0.9999650120735168  0.7500536441802979
  0.5000107288360596  0.0000007751035582  0.7500542998313904
  0.6250271797180176  0.0000444838115072  0.7500506043434143
  0.7500330805778503  0.0000659408979118  0.7500680685043335
  0.8750174641609192  0.0000447312195320  0.7500461935997009
  0.0000227130949497  0.1250316351652145  0.7499803304672241
  0.1249897927045822  0.1249785497784615  0.7500146031379700
  0.2499695271253586  0.1249419078230858  0.7500313520431519
  0.3749738633632660  0.1249426007270813  0.7500680685043335
  0.4999905526638031  0.1249799355864525  0.7500856518745422
  0.6250090003013611  0.1250306516885757  0.7500278949737549
  0.7500280737876892  0.1250630766153336  0.7499769330024719
  0.8750360012054443  0.1250637322664261  0.7499647736549377
  0.0000486522912979  0.2500529587268829  0.7498551011085510
  0.1250388622283936  0.2500140070915222  0.7498605847358704
  0.2499930560588837  0.2499516159296036  0.7500008940696716
  0.3749588727951050  0.2499166578054428  0.7500860095024109
  0.4999608397483826  0.2499535381793976  0.7500913739204407
  0.6249757409095764  0.2500139772891998  0.7499592304229736
  0.7500030994415283  0.2500506937503815  0.7499054670333862
  0.8750326633453369  0.2500651478767395  0.7498694658279419
  0.0000445544719696  0.3750512003898621  0.7497940063476562
  0.1250686645507812  0.3750323057174683  0.7497144937515259
  0.2500632107257843  0.3749926984310150  0.7497026324272156
  0.3750028610229492  0.3749239444732666  0.7502331137657166
  0.4999223947525024  0.3749249279499054  0.7502813935279846
  0.6249302625656128  0.3749945759773254  0.7497963905334473
  0.7499623298645020  0.3750314116477966  0.7497944831848145
  0.8750046491622925  0.3750500082969666  0.7498234510421753
  0.0000132322311401  0.5000282526016235  0.7498362660408020
  0.1250516176223755  0.5000234842300415  0.7497599124908447
  0.2500732541084290  0.5000025033950806  0.7496035695075989
  0.3750596642494202  0.4999629259109497  0.7495847344398499
  0.4999623894691467  0.4999251961708069  0.7504940629005432
  0.6249028444290161  0.4999644756317139  0.7496350407600403
  0.7499269247055054  0.5000032186508179  0.7496691346168518
  0.8749696016311646  0.5000228881835938  0.7498066425323486
  0.9999849200248718  0.6250017881393433  0.7498957514762878
  0.1250161975622177  0.6250020265579224  0.7498824596405029
  0.2500410079956055  0.6249967217445374  0.7497915029525757
  0.3750455975532532  0.6249874830245972  0.7496873736381531
  0.5000332593917847  0.6250115036964417  0.7497901916503906
  0.6249786019325256  0.6250125169754028  0.7498059272766113
  0.7499420046806335  0.6249889731407166  0.7497248053550720
  0.8749548196792603  0.6249963641166687  0.7498265504837036
  0.9999701380729675  0.7499834299087524  0.7499440908432007
  0.1249912381172180  0.7499824166297913  0.7499433755874634
  0.2500131130218506  0.7499835491180420  0.7499399781227112
  0.3750306069850922  0.7499926090240479  0.7498997449874878
  0.5000370144844055  0.7500187754631042  0.7499057650566101
  0.6250255107879639  0.7500516772270203  0.7500414252281189
  0.7499819397926331  0.7500196695327759  0.7499226331710815
  0.8749617338180542  0.7499924898147583  0.7499172091484070
  0.9999715685844421  0.8749821186065674  0.7500000000000000
  0.1249763965606689  0.8749682307243347  0.7499827742576599
  0.2499917447566986  0.8749681711196899  0.7499902844429016
  0.3750102221965790  0.8749819993972778  0.7500073313713074
  0.5000262856483459  0.8750137686729431  0.7500106096267700
  0.6250343322753906  0.8750531673431396  0.7500905990600586
  0.7500185966491699  0.8750531673431396  0.7500960826873779
  0.8749874234199524  0.8750139474868774  0.7500171661376953
  0.0833443999290466  0.0416803546249866  0.9999919533729553
  0.2083429992198944  0.0416788905858994  0.0000322830746882
  0.3333421349525452  0.0416788756847382  0.0000577066930418
  0.4583422243595123  0.0416803024709225  0.0000407388652093
  0.5833430290222168  0.0416820384562016  0.9999957680702209
  0.7083439230918884  0.0416825972497463  0.9999625086784363
  0.8333448767662048  0.0416825972497463  0.9999553561210632
  0.9583452939987183  0.0416820459067822  0.9999654889106750
  0.0833457857370377  0.1666818410158157  0.0000039759047468
  0.2083438336849213  0.1666789203882217  0.0000713206027285
  0.3333420753479004  0.1666779071092606  0.0001354388659820
  0.4583413600921631  0.1666786968708038  0.0001458085316699
  0.5833423137664795  0.1666817665100098  0.0000890427691047
  0.7083432674407959  0.1666826754808426  0.0000099691060313
  0.8333444595336914  0.1666827499866486  0.9999636411666870
  0.9583455920219421  0.1666826903820038  0.9999648928642273
  0.0833465903997421  0.2916826307773590  0.9999916553497314
  0.2083459049463272  0.2916816473007202  0.0000613562006038
  0.3333425521850586  0.2916775941848755  0.0001490662980359
  0.4583411812782288  0.2916772067546844  0.0001990744203795
  0.5833420753479004  0.2916815280914307  0.0001766815839801
  0.7083423137664795  0.2916825711727142  0.0000871372612892
  0.8333435654640198  0.2916826009750366  0.9999989271163940
  0.9583452343940735  0.2916826307773590  0.9999653100967407
  0.0833462104201317  0.4166824221611023  0.9999749660491943
  0.2083468139171600  0.4166827201843262  0.0000196840992430
  0.3333447575569153  0.4166820347309113  0.0000946751388256
  0.4583427906036377  0.4166792333126068  0.0001618777459953
  0.5833434462547302  0.4166819155216217  0.0001812746777432
  0.7083421945571899  0.4166826903820038  0.0001307280617766
  0.8333425521850586  0.4166824221611023  0.0000407902771258
  0.9583442211151123  0.4166822433471680  0.9999787211418152
  0.0833450555801392  0.5416818857192993  0.9999681711196899
  0.2083466351032257  0.5416822433471680  0.9999838471412659
  0.3333464860916138  0.5416828393936157  0.0000247606330959
  0.4583439826965332  0.5416842103004456  0.0000780523041612
  0.5833464860916138  0.5416842699050903  0.0001143422414316
  0.7083425521850586  0.5416828393936157  0.0001041235955199
  0.8333419561386108  0.5416823029518127  0.0000489594131068
  0.9583430290222168  0.5416819453239441  0.9999908208847046
  0.0833438187837601  0.6666814088821411  0.9999624490737915
  0.2083448767662048  0.6666817069053650  0.9999641180038452
  0.3333450853824615  0.6666827201843262  0.9999794363975525
  0.4583440423011780  0.6666834354400635  0.0000042873348320
  0.5833447575569153  0.6666832566261292  0.0000313525961246
  0.7083457112312317  0.6666834950447083  0.0000404321326641
  0.8333439230918884  0.6666827201843262  0.0000187592086149
  0.9583430886268616  0.6666817665100098  0.9999834895133972
  0.0833435952663422  0.7916809320449829  0.9999570250511169
  0.2083435803651810  0.7916808724403381  0.9999582767486572
  0.3333437740802765  0.7916816473007202  0.9999617934226990
  0.4583438336849213  0.7916824221611023  0.9999663233757019
  0.5833438634872437  0.7916824817657471  0.9999777674674988
  0.7083448171615601  0.7916824817657471  0.9999876022338867
  0.8333448171615601  0.7916824221611023  0.9999825358390808
  0.9583441019058228  0.7916816473007202  0.9999666810035706
  0.0833437144756317  0.9166802167892456  0.9999673366546631
  0.2083429843187332  0.9166797399520874  0.9999811649322510
  0.3333427608013153  0.9166802167892456  0.9999845027923584
  0.4583430588245392  0.9166813492774963  0.9999719262123108
  0.5833435058593750  0.9166821241378784  0.9999602437019348
  0.7083443403244019  0.9166823625564575  0.9999604821205139
  0.8333449363708496  0.9166821241378784  0.9999625682830811
  0.9583445787429810  0.9166813492774963  0.9999613165855408
  0.0829877257347107  0.0405478216707706  0.4999878406524658
  0.2063920348882675  0.0380834154784679  0.5000341534614563
  0.3316869139671326  0.0380831025540829  0.5000527501106262
  0.4575563371181488  0.0405487865209579  0.5000193119049072
  0.5834593176841736  0.0432515591382980  0.4999855160713196
  0.7094088792800903  0.0444993078708649  0.4999702870845795
  0.8350837230682373  0.0444975979626179  0.4999656081199646
  0.9597854018211365  0.0432487204670906  0.4999651312828064
  0.0854025408625603  0.1676644384860992  0.5000088810920715
  0.2080193907022476  0.1643670499324799  0.5000866055488586
  0.3305229246616364  0.1610514074563980  0.5001815557479858
  0.4563435614109039  0.1643676012754440  0.5001369118690491
  0.5822585821151733  0.1676674187183380  0.5000607967376709
  0.7083409428596497  0.1688394248485565  0.5000053644180298
  0.8345677256584167  0.1691402941942215  0.4999736845493317
  0.9604921936988831  0.1688370406627655  0.4999703764915466
  0.0870591327548027  0.2931763827800751  0.5000038146972656
  0.2127954512834549  0.2923285365104675  0.5000792741775513
  0.3334272205829620  0.2870427966117859  0.5001980066299438
  0.4536086618900299  0.2870410084724426  0.5002319216728210
  0.5795284509658813  0.2923291623592377  0.5001433491706848
  0.7061129808425903  0.2931776940822601  0.5000646710395813
  0.8331232070922852  0.2933529019355774  0.5000076293945312
  0.9602252244949341  0.2933521866798401  0.4999814927577972
  0.0871218144893646  0.4170432090759277  0.4999946653842926
  0.2164512574672699  0.4169349670410156  0.5000351667404175
  0.3476954102516174  0.4156516790390015  0.5001063942909241
  0.5679492354393005  0.4156484901905060  0.5001415014266968
  0.7004777789115906  0.4169329106807709  0.5000879764556885
  0.8299168348312378  0.4170433580875397  0.5000367164611816
  0.9585257768630981  0.4170554280281067  0.4999993145465851
  0.0846470743417740  0.5405110716819763  0.4999963343143463
  0.2139187008142471  0.5404400229454041  0.5000061988830566
  0.3452835083007812  0.5404323935508728  0.5000372529029846
  0.4819393754005432  0.5478825569152832  0.5000613927841187
  0.6951407194137573  0.5404294133186340  0.5000666379928589
  0.8265148401260376  0.5404391884803772  0.5000400543212891
  0.9558585882186890  0.5405109524726868  0.5000104904174805
  0.0822071433067322  0.6644204258918762  0.4999874830245972
  0.2094651758670807  0.6645092368125916  0.4999865293502808