POSCAR test - 3 atom types
   1.00000000000000
     4.0000000000000000     0.0000000000000000     0.0000000000000000
     0.0000000000000000     4.0000000000000000     0.0000000000000000
     0.0000000000000000     0.0000000000000000     4.0000000000000000
   Si N C Sn
   2 1 1 1
Direct
  0.7865701317787170  0.0305937491357327  0.5507599711418152
  0.0513744987547398 -1.2617534399032593  0.5507599711418152
  0.0513744987547398  0.0563755594193935  0.5507599711418152
 -0.9566080570220947  0.7394816279411316 -0.4389303624629974
  0.0000000000000000  0.3623406291007996  0.4119819700717926
