POSCAR test - 3 atom types
  1.0
    4.000000 0.000000 0.000000
    0.000000 4.000000 0.000000
    0.000000 0.000000 4.000000
  H C O
  1 1 1
Direct
  0.150000 0.150000 0.150000
  0.500000 0.500000 0.500000
  0.800000 0.250000 0.700000
