B  N - POSCAR_1-2
   1.00000000000000
    20.0186405181884766     0.0000000000000000     0.0000000000000000
   -10.0093202590942383    17.3366527557373047     0.0000000000000000
     0.0000000000000000     0.0000000000000000    13.1744375228881836
   B N C
   254 254 2
Direct
  0.0000082526667029  0.0000086512181952  0.9999700784683228
  0.1250077188014984  0.0000085309666247  0.9999952316284180
  0.2500073611736298  0.0000084449084170  0.0000236503565247
  0.3750070333480835  0.0000085016981757  0.0000278409133898
  0.5000066161155701  0.0000085761957962  1.0000011920928955
  0.6250065565109253  0.0000080423506006  0.9999696612358093
  0.7500068545341492  0.0000074019708336  0.9999564290046692
  0.8750077486038208  0.0000080875024651  0.9999585151672363
  0.0000115360317068  0.1250115782022476  0.9999757409095764
  0.1250118762254715  0.1250115782022476  0.0000218868299271
  0.2500096559524536  0.1250113546848297  0.0000827534531709
  0.3750078976154327  0.1250112652778625  0.0001186646768474
  0.5000059008598328  0.1250113993883133  0.0000962865378824
  0.6250063180923462  0.1250115185976028  0.0000313820091833
  0.7500076293945312  0.1250108480453491  0.9999755024909973
  0.8750094771385193  0.1250108778476715  0.9999579191207886
  0.0000145026697282  0.2500166893005371  0.9999711513519287
  0.1250177174806595  0.2500176429748535  0.0000186740126082
  0.2500174343585968  0.2500176429748535  0.0000981511548162
  0.3750121593475342  0.2500181794166565  0.0001707654882921
  0.5000062584877014  0.2500170767307281  0.0001818485179683
  0.6250061988830566  0.2500176131725311  0.0001242652215296
  0.7500084638595581  0.2500166893005371  0.0000319927712553
  0.8750112056732178  0.2500162124633789  0.9999727010726929
  0.0000162181859196  0.3750220239162445  0.9999703764915466
  0.1250210851430893  0.3750233948230743  0.9999942779541016
  0.2500250339508057  0.3750251233577728  0.0000610344868619
  0.3750199377536774  0.3750241994857788  0.0001424037764082
  0.5000103712081909  0.3750236332416534  0.0001864920486696
  0.6250063180923462  0.3750250339508057  0.0001736609992804
  0.7500085830688477  0.3750233650207520  0.0000906310742721
  0.8750120401382446  0.3750220239162445  0.0000050259181990
  0.0000149071447595  0.5000236034393311  0.9999778270721436
  0.1250199675559998  0.5000241994857788  0.9999744296073914
  0.2500247955322266  0.5000254511833191  0.0000094394699772
  0.3750272095203400  0.5000264644622803  0.0000683524631313
  0.5000164508819580  0.5000265836715698  0.0001242592406925
  0.6250053644180298  0.5000263452529907  0.0001408707321389
  0.7500069737434387  0.5000255107879639  0.0000995234222501
  0.8750104904174805  0.5000241994857788  0.0000275749607681
  0.0000112512534542  0.6250199675559998  0.9999778270721436
  0.1250149756669998  0.6250199675559998  0.9999638795852661
  0.2500182688236237  0.6250200867652893  0.9999751448631287
  0.3750188350677490  0.6250184774398804  0.0000023831050839
  0.5000123381614685  0.6250123381614685  0.0000384500199289
  0.6250061988830566  0.6250123381614685  0.0000639517384116
  0.7500059008598328  0.6250184774398804  0.0000562080858799
  0.8750081062316895  0.6250200867652893  0.0000170437724591
  0.0000081356802184  0.7500138878822327  0.9999668002128601
  0.1250101774930954  0.7500141263008118  0.9999576210975647
  0.2500120401382446  0.7500138878822327  0.9999601244926453
  0.3750121891498566  0.7500125169754028  0.9999676942825317
  0.5000097751617432  0.7500088810920715  0.9999811053276062
  0.6250060200691223  0.7500057816505432  0.9999976754188538
  0.7500054240226746  0.7500089406967163  0.0000025097729122
  0.8750066161155701  0.7500125169754028  0.9999875426292419
  0.0000069588786573  0.8750092387199402  0.9999619126319885
  0.1250075101852417  0.8750095963478088  0.9999659061431885
  0.2500083446502686  0.8750095963478088  0.9999729394912720
  0.3750085532665253  0.8750092387199402  0.9999706149101257
  0.5000079274177551  0.8750081658363342  0.9999634027481079
  0.6250065565109253  0.8750061392784119  0.9999637007713318
  0.7500058412551880  0.8750061392784119  0.9999682903289795
  0.8750064969062805  0.8750082254409790  0.9999663233757019
  0.9999412894248962  0.9998778700828552  0.4999670982360840
  0.1233517155051231  0.9974308013916016  0.4999915361404419
  0.2482968568801880  0.9965972304344177  0.5000197887420654
  0.3740743398666382  0.9974294304847717  0.5000129342079163
  0.4999315440654755  0.9998777508735657  0.4999856650829315
  0.6258620619773865  0.0025112582370639  0.4999708533287048
  0.7516708374023438  0.0033481353893876  0.4999710023403168
  0.8766428828239441  0.0025100437924266  0.4999643564224243
  0.0019140698714182  0.1266908049583435  0.4999783039093018
  0.1251101493835449  0.1239669620990753  0.5000246763229370
  0.2477952092885971  0.1209381371736526  0.5001013875007629
  0.3731383383274078  0.1209385916590691  0.5001250505447388
  0.4988511502742767  0.1239666119217873  0.5000712275505066
  0.6247723102569580  0.1266926229000092  0.5000162720680237
  0.7508820891380310  0.1277136951684952  0.4999803006649017
  0.8768254518508911  0.1277124285697937  0.4999671876430511
  0.0028286359738559  0.2521468698978424  0.4999825060367584
  0.1286037415266037  0.2513281404972076  0.5000313520431519
  0.2508615255355835  0.2477207481861115  0.5001203417778015
  0.3714301884174347  0.2428676486015320  0.5002173185348511
  0.4968525469303131  0.2477205395698547  0.5001730322837830
  0.6227201819419861  0.2513300478458405  0.5000905394554138
  0.7493147850036621  0.2521486580371857  0.5000265836715698
  0.8761628866195679  0.2523303031921387  0.4999874234199524
  0.0023709915112704  0.3764515221118927  0.4999904930591583
  0.1309049725532532  0.3764094114303589  0.5000094175338745
  0.2600425183773041  0.3758977353572845  0.5000747442245483
  0.4826468825340271  0.3688567876815796  0.5001827478408813
  0.6158505678176880  0.3758974671363831  0.5001258850097656
  0.7454999089241028  0.3764102458953857  0.5000634789466858
  0.8740763068199158  0.3764519989490509  0.5000150203704834
  0.0000129818045025  0.5000315308570862  0.5000020861625671
  0.1290600597858429  0.5000436305999756  0.4999990761280060
  0.2593538463115692  0.5000339150428772  0.5000243782997131
  0.3932069242000580  0.4993008971214294  0.5000671148300171
  0.6060854196548462  0.4992980659008026  0.5000914335250854
  0.7406731843948364  0.5000327825546265  0.5000648498535156
  0.8709779381752014  0.5000436305999756  0.5000303983688354
  0.9980264902114868  0.6235653758049011  0.4999993145465851
  0.1255324333906174  0.6235656142234802  0.4999921917915344
  0.2529816925525665  0.6236171722412109  0.4999985694885254
  0.3801107704639435  0.6239826679229736  0.5000156164169312
  0.5073823332786560  0.6295584440231323  0.5000243186950684
  0.6221684813499451  0.6295570135116577  0.5000317692756653
  0.7438655495643616  0.6239817142486572  0.5000351667404175
  0.8706283569335938  0.6236166357994080  0.5000191330909729
  0.9975870847702026  0.7478266358375549  0.4999799430370331
  0.1238145306706429  0.7476341724395752  0.4999732077121735
  0.2502336502075195  0.7478256225585938  0.4999724924564362
  0.3764641582965851  0.7486735582351685  0.4999775290489197
  0.5025146603584290  0.7517566680908203  0.4999874532222748
  0.6286126971244812  0.7572321295738220  0.4999854564666748
  0.7492356896400452  0.7517561912536621  0.4999980032444000
  0.8722038865089417  0.7486737966537476  0.4999937415122986
  0.9982960820198059  0.8732465505599976  0.4999633431434631
  0.1232350915670395  0.8722330927848816  0.4999647140502930
  0.2489959448575974  0.8722314834594727  0.4999678432941437
  0.3749457597732544  0.8732453584671021  0.4999644458293915
  0.5008880496025085  0.8757250308990479  0.4999641478061676
  0.6268360018730164  0.8790486454963684  0.4999690651893616
  0.7522053122520447  0.8790476322174072  0.4999736547470093
  0.8748313784599304  0.8757249116897583  0.4999704658985138
  0.0833126828074455  0.0416377000510693  0.2499566525220871
  0.2082980126142502  0.0416063740849495  0.2500209808349609
  0.3333072662353516  0.0416064150631428  0.2500432133674622
  0.4583235383033752  0.0416359826922417  0.2499957531690598
  0.5833403468132019  0.0416788794100285  0.2499335259199142
  0.7083546519279480  0.0417110882699490  0.2498847395181656
  0.8333554267883301  0.0417110547423363  0.2498794943094254
  0.9583377242088318  0.0416782908141613  0.2499107420444489
  0.0833498686552048  0.1666678637266159  0.2500382959842682
  0.2083170861005783  0.1666250228881836  0.2501001358032227
  0.3332962393760681  0.1665940582752228  0.2501419186592102
  0.4583064615726471  0.1666254103183746  0.2501592040061951
  0.5833193659782410  0.1666686683893204  0.2501034736633301
  0.7083405852317810  0.1667055487632751  0.2500208914279938
  0.8333594202995300  0.1667189002037048  0.2499727010726929
  0.9583648443222046  0.1667044758796692  0.2499842345714569
  0.0833875313401222  0.2917016148567200  0.2501431405544281
  0.2083752900362015  0.2916597723960876  0.2502047717571259
  0.3333301544189453  0.2916218340396881  0.2501272559165955
  0.4582898914813995  0.2916223406791687  0.2501615583896637
  0.5832833647727966  0.2916616499423981  0.2502769827842712
  0.7083141803741455  0.2917025983333588  0.2502143979072571
  0.8333472609519958  0.2917207777500153  0.2501058280467987
  0.9583744406700134  0.2917201817035675  0.2500762939453125
  0.0833936855196953  0.4167084991931915  0.2501974105834961
  0.2084158658981323  0.4166885018348694  0.2503516077995300
  0.3334127068519592  0.4166629314422607  0.2502805292606354
  0.4583506584167480  0.4167026579380035  0.2498709410429001
  0.5832504034042358  0.4166642129421234  0.2503166496753693
  0.7082727551460266  0.4166897237300873  0.2503993511199951
  0.8333149552345276  0.4167089760303497  0.2502465546131134
  0.9583563208580017  0.4167126119136810  0.2501435279846191
  0.0833621919155121  0.5416826605796814  0.2501397132873535
  0.2084004729986191  0.5416766405105591  0.2502933740615845
  0.3334217965602875  0.5416575074195862  0.2504827082157135
  0.4584279358386993  0.5416413545608521  0.2504009902477264
  0.5832137465476990  0.5416402220726013  0.2504094839096069
  0.7082358598709106  0.5416581630706787  0.2505068480968475
  0.8332780003547668  0.5416780710220337  0.2503269612789154
  0.9583206772804260  0.5416827797889709  0.2501600682735443
  0.0833243578672409  0.6666491031646729  0.2500539422035217
  0.2083566784858704  0.6666503548622131  0.2500937283039093
  0.3333807587623596  0.6666486263275146  0.2502103149890900
  0.4583874940872192  0.6666543483734131  0.2502439618110657
  0.5833383798599243  0.6666780710220337  0.2501789629459381
  0.7082659006118774  0.6666548848152161  0.2502572536468506
  0.8332671523094177  0.6666492223739624  0.2502321600914001
  0.9582934975624084  0.6666508316993713  0.2501122653484344
  0.0833033770322800  0.7916271686553955  0.2499843090772629
  0.2083229422569275  0.7916269898414612  0.2499834746122360
  0.3333446681499481  0.7916377186775208  0.2499999701976776
  0.4583598375320435  0.7916615009307861  0.2500120699405670
  0.5833603739738464  0.7916932702064514  0.2499379813671112
  0.7083315849304199  0.7916934490203857  0.2499450147151947
  0.8333006501197815  0.7916616201400757  0.2500248551368713
  0.9582920074462891  0.7916375398635864  0.2500069141387939
  0.0832984447479248  0.9166215062141418  0.2499438226222992
  0.2083055526018143  0.9166122674942017  0.2499684542417526
  0.3333216309547424  0.9166221618652344  0.2499561309814453
  0.4583397209644318  0.9166514277458191  0.2499236762523651
  0.5833535790443420  0.9166902899742126  0.2498710453510284
  0.7083551883697510  0.9167117476463318  0.2498337030410767
  0.8333353400230408  0.9166901707649231  0.2498750090599060
  0.9583109617233276  0.9166517853736877  0.2499172985553741
  0.0833142027258873  0.0416388548910618  0.7500401735305786
  0.2083000838756561  0.0416079834103584  0.7500485777854919
  0.3333077430725098  0.0416079759597778  0.7500690221786499
  0.4583250284194946  0.0416404232382774  0.7500793337821960
  0.5833412408828735  0.0416802056133747  0.7500594854354858
  0.7083548307418823  0.0417096801102161  0.7500456571578979
  0.8333556056022644  0.0417104065418243  0.7500409483909607
  0.9583402872085571  0.0416832156479359  0.7500362992286682
  0.0833529308438301  0.1666713804006577  0.7499831914901733
  0.2083210051059723  0.1666283309459686  0.7500392794609070
  0.3332997858524323  0.1665976941585541  0.7501108050346375
  0.4583105742931366  0.1666298359632492  0.7501094341278076
  0.5833202600479126  0.1666712760925293  0.7500591278076172
  0.7083405256271362  0.1667047441005707  0.7499982714653015
  0.8333604931831360  0.1667201966047287  0.7499600648880005
  0.9583661556243896  0.1667077690362930  0.7499617934226990
  0.0833890289068222  0.2917048633098602  0.7498536109924316
  0.2083784788846970  0.2916646599769592  0.7499113678932190
  0.3333335220813751  0.2916258871555328  0.7501406669616699
  0.4582932293415070  0.2916267216205597  0.7501909136772156
  0.5832897424697876  0.2916675209999084  0.7500107884407043
  0.7083148956298828  0.2917023301124573  0.7499324083328247
  0.8333481550216675  0.2917227447032928  0.7498970031738281
  0.9583759307861328  0.2917249500751495  0.7498709559440613
  0.0833954960107803  0.4167117476463318  0.7497673034667969
  0.2084182649850845  0.4166913330554962  0.7496817111968994
  0.3334168791770935  0.4166676104068756  0.7498587369918823
  0.4583541154861450  0.4167078733444214  0.7503776550292969
  0.5832519531250000  0.4166696369647980  0.7499281764030457
  0.7082720994949341  0.4166917800903320  0.7497655749320984
  0.8333150744438171  0.4167110323905945  0.7498228549957275
  0.9583576917648315  0.4167162775993347  0.7498300671577454
  0.0833631530404091  0.5416861176490784  0.7498103380203247
  0.2084009945392609  0.5416798591613770  0.7496878504753113
  0.3334235846996307  0.5416601300239563  0.7495473623275757
  0.4584299623966217  0.5416466593742371  0.7496809959411621
  0.5832160711288452  0.5416480302810669  0.7497050166130066
  0.7082341313362122  0.5416638255119324  0.7496009469032288
  0.8332760334014893  0.5416794419288635  0.7497384548187256
  0.9583213925361633  0.5416859984397888  0.7498316764831543
  0.0833270028233528  0.6666551232337952  0.7498887777328491
  0.2083578407764435  0.6666520833969116  0.7498496770858765
  0.3333838582038879  0.6666513085365295  0.7497605681419373
  0.4583898782730103  0.6666575074195862  0.7497568130493164
  0.5833401083946228  0.6666811108589172  0.7498491406440735
  0.7082688212394714  0.6666602492332458  0.7497805953025818
  0.8332681655883789  0.6666513085365295  0.7497918605804443
  0.9582939147949219  0.6666519641876221  0.7498680353164673
  0.0833038985729218  0.7916301488876343  0.7499468922615051
  0.2083264440298080  0.7916302084922791  0.7499484419822693
  0.3333487808704376  0.7916386127471924  0.7499400377273560
  0.4583639502525330  0.7916634678840637  0.7499353885650635
  0.5833627581596375  0.7916966080665588  0.7500274777412415
  0.7083330154418945  0.7916962504386902  0.7500347495079041
  0.8332999944686890  0.7916640639305115  0.7499502301216125
  0.9582909345626831  0.7916393876075745  0.7499445080757141
  0.0832990109920502  0.9166231155395508  0.7500073909759521
  0.2083072811365128  0.9166142940521240  0.7500001192092896
  0.3333245813846588  0.9166236519813538  0.7500219345092773
  0.4583435058593750  0.9166532754898071  0.7500281929969788
  0.5833566188812256  0.9166918992996216  0.7500593066215515
  0.7083562612533569  0.9167124032974243  0.7501000165939331
  0.8333353996276855  0.9166923165321350  0.7500631213188171
  0.9583091735839844  0.9166530966758728  0.7500219941139221
  0.9999878406524658  0.9999971985816956  0.2499169409275055
  0.1249713450670242  0.9999621510505676  0.2499681264162064
  0.2499752342700958  0.9999517202377319  0.2500273287296295
  0.3749900758266449  0.9999628663063049  0.2499969303607941
  0.5000094771385193  0.9999981522560120  0.2499396055936813
  0.6250257492065430  0.0000425214166171  0.2498858720064163
  0.7500317692756653  0.0000645826585242  0.2498500347137451
  0.8750151395797729  0.0000416006478190  0.2498813569545746
  0.0000199793721549  0.1250272542238235  0.2499845623970032
  0.1249876990914345  0.1249761059880257  0.2500354945659637
  0.2499670684337616  0.1249393895268440  0.2501366436481476
  0.3749712109565735  0.1249395757913589  0.2501699626445770
  0.4999885857105255  0.1249766871333122  0.2501001656055450
  0.6250081658363342  0.1250290274620056  0.2500294148921967
  0.7500268220901489  0.1250622421503067  0.2499686628580093
  0.8750347495079041  0.1250617951154709  0.2499554604291916
  0.0000478398105770  0.2500497400760651  0.2500987350940704
  0.1250368207693100  0.2500106990337372  0.2501852810382843
  0.2499908059835434  0.2499481588602066  0.2501929104328156
  0.3749555349349976  0.2499132603406906  0.2502455711364746
  0.4999558925628662  0.2499486804008484  0.2502584755420685
  0.6249732971191406  0.2500117123126984  0.2502658069133759
  0.7500024437904358  0.2500508129596710  0.2501527965068817
  0.8750319480895996  0.2500632703304291  0.2500770688056946
  0.0000434766443504  0.3750474452972412  0.2501570582389832
  0.1250668317079544  0.3750292360782623  0.2502809464931488
  0.2500600218772888  0.3749882578849792  0.2503918409347534
  0.3749990761280060  0.3749195337295532  0.2500158548355103
  0.4999189972877502  0.3749200403690338  0.2500451207160950
  0.6249280571937561  0.3749895989894867  0.2504456043243408
  0.7499623894691467  0.3750301003456116  0.2503429651260376
  0.8750042319297791  0.3750478923320770  0.2501894831657410
  0.0000125348105939  0.5000250339508057  0.2501281499862671
  0.1250507682561874  0.5000202059745789  0.2502014935016632
  0.2500717341899872  0.4999992847442627  0.2504115104675293
  0.3750570416450500  0.4999589920043945  0.2504920363426208
  0.4999590814113617  0.4999192953109741  0.2496466338634491
  0.6249015331268311  0.4999596476554871  0.2505125701427460
  0.7499284148216248  0.5000008940696716  0.2504442334175110
  0.8749698400497437  0.5000207424163818  0.2502414882183075
  0.9999831318855286  0.6249985098838806  0.2500717043876648
  0.1250147521495819  0.6249982714653015  0.2500572502613068
  0.2500391006469727  0.6249938607215881  0.2501740455627441
  0.3750432431697845  0.6249850988388062  0.2503124773502350
  0.5000308156013489  0.6250074505805969  0.2502437233924866
  0.6249753236770630  0.6250075101852417  0.2502504885196686
  0.7499409914016724  0.6249861121177673  0.2503314316272736
  0.8749547600746155  0.6249952316284180  0.2502017021179199
  0.9999701976776123  0.7499815821647644  0.2500013709068298
  0.1249884739518166  0.7499779462814331  0.2499819844961166
  0.2500101625919342  0.7499811649322510  0.2499935626983643
  0.3750271201133728  0.7499904036521912  0.2500494122505188
  0.5000343322753906  0.7500163316726685  0.2500631809234619
  0.6250239014625549  0.7500488758087158  0.2499510645866394
  0.7499811053276062  0.7500171065330505  0.2500763833522797
  0.8749624490737915  0.7499911189079285  0.2500651180744171
  0.9999713301658630  0.8749801516532898  0.2499336302280426
  0.1249751225113869  0.8749657273292542  0.2499515712261200
  0.2499890029430389  0.8749656677246094  0.2499572485685349
  0.3750074207782745  0.8749805092811584  0.2499385923147202
  0.5000236034393311  0.8750115036964417  0.2499202042818069
  0.6250324845314026  0.8750514388084412  0.2498458474874496
  0.7500178217887878  0.8750516176223755  0.2498517930507660
  0.8749870657920837  0.8750119209289551  0.2499263435602188
  0.9999896287918091  0.0000006749934300  0.7500326037406921
  0.1249726787209511  0.9999645352363586  0.7500264644622803
  0.2499762624502182  0.9999538660049438  0.7500168085098267
  0.3749914765357971  0.9999651312828064  0.7500537037849426
  0.5000106692314148  0.0000007751036151  0.7500543594360352
  0.6250271797180176  0.0000444838151452  0.7500506639480591
  0.7500330805778503  0.0000659409051877  0.7500681281089783
  0.8750175237655640  0.0000447312268079  0.7500462532043457
  0.0000227208838623  0.1250316500663757  0.7499803900718689
  0.1249898076057434  0.1249785572290421  0.7500146627426147
  0.2499695420265198  0.1249419301748276  0.7500314116477966
  0.3749738931655884  0.1249426156282425  0.7500681281089783
  0.4999905824661255  0.1249799430370331  0.7500857114791870
  0.6250090003013611  0.1250306665897369  0.7500278949737549
  0.7500280737876892  0.1250630915164948  0.7499769926071167
  0.8750360012054443  0.1250637471675873  0.7499648332595825
  0.0000486775752506  0.2500529885292053  0.7498551607131958
  0.1250388771295547  0.2500140368938446  0.7498606443405151
  0.2499930709600449  0.2499516606330872  0.7500008940696716
  0.3749588727951050  0.2499166876077652  0.7500860691070557
  0.4999608397483826  0.2499535679817200  0.7500914335250854
  0.6249757409095764  0.2500140070915222  0.7499592900276184
  0.7500031590461731  0.2500507235527039  0.7499055266380310
  0.8750326037406921  0.2500651776790619  0.7498695254325867
  0.0000445909354312  0.3750512599945068  0.7497940063476562
  0.1250686943531036  0.3750323653221130  0.7497145533561707
  0.2500632405281067  0.3749927580356598  0.7497026920318604
  0.3750028908252716  0.3749240040779114  0.7502331733703613
  0.4999223947525024  0.3749249875545502  0.7502814531326294
  0.6249302625656128  0.3749946355819702  0.7497964501380920
  0.7499623894691467  0.3750314414501190  0.7497945427894592
  0.8750046491622925  0.3750500380992889  0.7498235106468201
  0.0000132444265546  0.5000283122062683  0.7498363256454468
  0.1250516474246979  0.5000235438346863  0.7497599124908447
  0.2500732839107513  0.5000025629997253  0.7496036887168884
  0.3750596940517426  0.4999629855155945  0.7495847940444946
  0.4999623894691467  0.4999252259731293  0.7504941225051880
  0.6249028444290161  0.4999645352363586  0.7496351003646851
  0.7499269247055054  0.5000032782554626  0.7496691942214966
  0.8749696612358093  0.5000229477882385  0.7498067021369934
  0.9999849796295166  0.6250018477439880  0.7498958110809326
  0.1250162273645401  0.6250020861625671  0.7498825192451477
  0.2500410377979279  0.6249967813491821  0.7497915625572205
  0.3750456571578979  0.6249875426292419  0.7496873736381531
  0.5000333189964294  0.6250115633010864  0.7497902512550354
  0.6249786615371704  0.6250126361846924  0.7498059868812561
  0.7499420642852783  0.6249890923500061  0.7497248649597168
  0.8749547600746155  0.6249964237213135  0.7498266100883484
  0.9999701976776123  0.7499835491180420  0.7499441504478455
  0.1249912828207016  0.7499824762344360  0.7499434351921082
  0.2500131130218506  0.7499836087226868  0.7499400377273560
  0.3750306665897369  0.7499927282333374  0.7498998045921326
  0.5000370740890503  0.7500188350677490  0.7499058246612549
  0.6250255703926086  0.7500517368316650  0.7500414848327637
  0.7499819993972778  0.7500197887420654  0.7499226927757263
  0.8749617934226990  0.7499926090240479  0.7499172687530518
  0.9999715685844421  0.8749822378158569  0.7500000596046448
  0.1249764487147331  0.8749682903289795  0.7499828338623047
  0.2499917894601822  0.8749682307243347  0.7499903440475464
  0.3750103116035461  0.8749821186065674  0.7500073909759521
  0.5000263452529907  0.8750138282775879  0.7500106692314148
  0.6250343918800354  0.8750532269477844  0.7500907182693481
  0.7500186562538147  0.8750532865524292  0.7500960826873779
  0.8749874830245972  0.8750140666961670  0.7500172257423401
  0.0833443999290466  0.0416803583502769  0.9999920725822449
  0.2083430141210556  0.0416788943111897  0.0000322830783261
  0.3333421349525452  0.0416788794100285  0.0000577066966798
  0.4583422243595123  0.0416803061962128  0.0000407388652093
  0.5833430290222168  0.0416820421814919  0.9999958872795105
  0.7083439230918884  0.0416826047003269  0.9999625682830811
  0.8333449363708496  0.0416826047003269  0.9999554157257080
  0.9583452939987183  0.0416820496320724  0.9999655485153198
  0.0833457931876183  0.1666818559169769  0.0000039759052015
  0.2083438187837601  0.1666789352893829  0.0000713206100045
  0.3333421051502228  0.1666779220104218  0.0001354388805339
  0.4583413600921631  0.1666787117719650  0.0001458085462218
  0.5833423137664795  0.1666817814111710  0.0000890427691047
  0.7083432674407959  0.1666826903820038  0.0000099691069408
  0.8333445191383362  0.1666827797889709  0.9999637603759766
  0.9583456516265869  0.1666827052831650  0.9999649524688721
  0.0833466053009033  0.2916826605796814  0.9999917149543762
  0.2083459198474884  0.2916816771030426  0.0000613562078797
  0.3333425819873810  0.2916776239871979  0.0001490663125878
  0.4583411812782288  0.2916772365570068  0.0001990744349314
  0.5833420157432556  0.2916815578937531  0.0001766815985320
  0.7083423137664795  0.2916826009750366  0.0000871372685651
  0.8333435654640198  0.2916826307773590  0.9999989867210388
  0.9583452939987183  0.2916826605796814  0.9999654293060303
  0.0833462327718735  0.4166824817657471  0.9999750256538391
  0.2083468586206436  0.4166827797889709  0.0000196840992430
  0.3333447575569153  0.4166820943355560  0.0000946751461015
  0.4583428502082825  0.4166792929172516  0.0001618777605472
  0.5833434462547302  0.4166819453239441  0.0001812746922951
  0.7083421945571899  0.4166827499866486  0.0001307280763285
  0.8333424925804138  0.4166824817657471  0.0000407902807638
  0.9583442211151123  0.4166822731494904  0.9999787807464600
  0.0833450779318810  0.5416819453239441  0.9999682307243347
  0.2083466649055481  0.5416823029518127  0.9999839067459106
  0.3333465158939362  0.5416828989982605  0.0000247606349149
  0.4583440124988556  0.5416842699050903  0.0000780523041612
  0.5833465456962585  0.5416843295097351  0.0001143422487075
  0.7083426117897034  0.5416828989982605  0.0001041236027959
  0.8333419561386108  0.5416823625564575  0.0000489594167448
  0.9583431482315063  0.5416820049285889  0.9999908804893494
  0.0833438709378242  0.6666814684867859  0.9999625086784363
  0.2083449065685272  0.6666817665100098  0.9999641776084900
  0.3333451151847839  0.6666827797889709  0.9999794960021973
  0.4583440721035004  0.6666834950447083  0.0000042873352868
  0.5833448171615601  0.6666833758354187  0.0000313525997626
  0.7083457112312317  0.6666835546493530  0.0000404321363021
  0.8333439230918884  0.6666827797889709  0.0000187592104339
  0.9583431482315063  0.6666818261146545  0.9999835491180420
  0.0833436176180840  0.7916809916496277  0.9999570846557617
  0.2083436101675034  0.7916809320449829  0.9999583959579468
  0.3333438038825989  0.7916817069053650  0.9999618530273438
  0.4583438634872437  0.7916824817657471  0.9999664425849915
  0.5833438634872437  0.7916825413703918  0.9999778270721436
  0.7083449363708496  0.7916826009750366  0.9999877214431763
  0.8333448767662048  0.7916824817657471  0.9999826550483704
  0.9583441615104675  0.7916817069053650  0.9999668002128601
  0.0833437517285347  0.9166802763938904  0.9999673962593079
  0.2083430588245392  0.9166798591613770  0.9999812245368958
  0.3333427906036377  0.9166802763938904  0.9999845623970032
  0.4583431482315063  0.9166814684867859  0.9999719858169556
  0.5833435654640198  0.9166822433471680  0.9999603629112244
  0.7083443403244019  0.9166824221611023  0.9999605417251587
  0.8333449959754944  0.9166822433471680  0.9999626278877258
  0.9583446383476257  0.9166814684867859  0.9999614357948303
  0.0829877257347107  0.0405478253960609  0.4999878704547882
  0.2063920348882675  0.0380834192037582  0.5000341534614563
  0.3316869437694550  0.0380831062793732  0.5000528097152710
  0.4575563371181488  0.0405487902462482  0.5000193119049072
  0.5834593176841736  0.0432515628635883  0.4999855756759644
  0.7094088792800903  0.0444993115961552  0.4999703168869019
  0.8350837826728821  0.0444976016879082  0.4999656677246094
  0.9597854018211365  0.0432487241923809  0.4999651908874512
  0.0854025483131409  0.1676644533872604  0.5000089406967163
  0.2080194056034088  0.1643670648336411  0.5000866651535034
  0.3305229246616364  0.1610514223575592  0.5001816153526306
  0.4563435912132263  0.1643676161766052  0.5001369714736938
  0.5822585821151733  0.1676674336194992  0.5000607967376709
  0.7083409428596497  0.1688394546508789  0.5000054240226746
  0.8345677256584167  0.1691403090953827  0.4999737143516541
  0.9604921340942383  0.1688370555639267  0.4999704360961914
  0.0870591476559639  0.2931764125823975  0.5000038743019104
  0.2127954512834549  0.2923285663127899  0.5000793337821960
  0.3334272205829620  0.2870428264141083  0.5001980066299438
  0.4536086916923523  0.2870410382747650  0.5002319216728210
  0.5795285105705261  0.2923291921615601  0.5001433491706848
  0.7061130404472351  0.2931777238845825  0.5000647306442261
  0.8331233263015747  0.2933529317378998  0.5000076889991760
  0.9602252244949341  0.2933522164821625  0.4999815523624420
  0.0871218293905258  0.4170432388782501  0.4999947249889374
  0.2164512872695923  0.4169350266456604  0.5000352263450623
  0.3476954102516174  0.4156517088413239  0.5001063942909241
  0.5679492354393005  0.4156485497951508  0.5001415014266968
  0.7004777789115906  0.4169329702854156  0.5000879764556885
  0.8299168944358826  0.4170434176921844  0.5000367760658264
  0.9585258364677429  0.4170554578304291  0.4999993443489075
  0.0846471115946770  0.5405111312866211  0.4999963939189911
  0.2139187306165695  0.5404400825500488  0.5000062584877014
  0.3452835381031036  0.5404324531555176  0.5000373125076294
  0.4819394052028656  0.5478826165199280  0.5000614523887634
  0.6951407194137573  0.5404294729232788  0.5000666975975037
  0.8265148401260376  0.5404392480850220  0.5000401139259338
  0.9558585882186890  0.5405110120773315  0.5000105500221252
  0.0822071507573128  0.6644204854965210  0.4999875128269196
  0.2094652205705643  0.6645093560218811  0.4999865889549255
  0.3364634215831757  0.6649469137191772  0.4999969601631165