POSCAR test - 3 atom types
1.0
4.00000000 0.00000000 0.00000000
0.00000000 4.00000000 0.00000000
0.00000000 0.00000000 4.00000000
Si
4
Direct
0.78657013 0.03059375 0.55075997
-0.95660806 0.03059375 0.55075997
0.05137450 1.22340298 0.55075997
0.05137450 -1.26175344 0.55075997
